NAME : dka1376
COMMENT : Bonn VLSI data set with 1376 points
COMMENT : Uni Bonn, Research Institute for Discrete Math
COMMENT : Contributed by Andre Rohe
TYPE : TSP
DIMENSION : 1376
EDGE_WEIGHT_TYPE : EUC_2D
NODE_COORD_SECTION
1 0 105
2 0 107
3 0 113
4 0 131
5 0 149
6 0 167
7 0 185
8 0 203
9 0 221
10 0 224
11 0 227
12 0 23
13 0 239
14 0 242
15 0 41
16 0 5
17 0 59
18 0 77
19 0 92
20 0 95
21 2 102
22 2 105
23 2 107
24 2 108
25 2 109
26 2 110
27 2 112
28 2 115
29 2 116
30 2 117
31 2 129
32 2 131
33 2 133
34 2 135
35 2 138
36 2 140
37 2 173
38 2 175
39 2 180
40 2 183
41 2 186
42 2 192
43 2 195
44 2 197
45 2 200
46 2 210
47 2 212
48 2 225
49 2 226
50 2 228
51 2 230
52 2 231
53 2 239
54 2 242
55 2 32
56 2 34
57 2 67
58 2 70
59 2 71
60 2 73
61 2 74
62 2 75
63 2 77
64 2 79
65 2 80
66 2 81
67 2 90
68 2 92
69 2 93
70 2 94
71 2 96
72 2 99
73 5 103
74 5 106
75 5 11
76 5 113
77 5 126
78 5 130
79 5 135
80 5 139
81 5 145
82 5 151
83 5 159
84 5 16
85 5 167
86 5 179
87 5 181
88 5 193
89 5 196
90 5 215
91 5 218
92 5 22
93 5 220
94 5 229
95 5 236
96 5 240
97 5 246
98 5 249
99 5 253
100 5 26
101 5 7
102 5 78
103 5 86
104 5 91
105 5 97
106 8 131
107 8 155
108 8 161
109 8 169
110 8 8
111 9 114
112 9 131
113 9 137
114 9 142
115 9 155
116 9 161
117 9 169
118 9 19
119 9 194
120 9 22
121 9 26
122 9 83
123 10 102
124 10 105
125 10 112
126 10 129
127 10 132
128 10 134
129 10 137
130 10 142
131 10 155
132 10 161
133 10 169
134 10 180
135 10 185
136 10 192
137 10 194
138 10 199
139 10 20
140 10 228
141 10 239
142 10 24
143 10 77
144 10 83
145 10 90
146 10 96
147 11 102
148 11 105
149 11 112
150 11 118
151 11 129
152 11 131
153 11 134
154 11 137
155 11 142
156 11 155
157 11 162
158 11 170
159 11 177
160 11 180
161 11 185
162 11 192
163 11 194
164 11 199
165 11 206
166 11 214
167 11 217
168 11 228
169 11 239
170 11 244
171 11 247
172 11 28
173 11 5
174 11 65
175 11 77
176 11 83
177 11 90
178 11 96
179 12 123
180 12 142
181 12 155
182 12 233
183 12 83
184 15 103
185 15 106
186 15 11
187 15 113
188 15 126
189 15 130
190 15 133
191 15 135
192 15 145
193 15 151
194 15 16
195 15 181
196 15 193
197 15 21
198 15 215
199 15 218
200 15 220
201 15 229
202 15 236
203 15 240
204 15 25
205 15 78
206 15 86
207 15 91
208 15 97
209 16 186
210 16 200
211 17 108
212 17 109
213 17 110
214 17 173
215 17 175
216 17 183
217 17 225
218 17 226
219 17 231
220 17 242
221 17 67
222 17 71
223 17 74
224 17 75
225 17 80
226 17 81
227 17 93
228 17 94
229 17 99
230 18 143
231 18 145
232 18 147
233 18 149
234 18 151
235 18 153
236 18 156
237 18 157
238 18 159
239 18 160
240 18 161
241 18 164
242 18 165
243 18 167
244 18 168
245 18 169
246 18 84
247 18 86
248 18 87
249 18 88
250 25 101
251 25 104
252 25 105
253 25 109
254 25 110
255 25 113
256 25 114
257 25 115
258 25 120
259 25 122
260 25 127
261 25 134
262 25 136
263 25 138
264 25 139
265 25 140
266 25 142
267 25 143
268 25 144
269 25 146
270 25 169
271 25 171
272 25 187
273 25 189
274 25 197
275 25 198
276 25 199
277 25 202
278 25 203
279 25 207
280 25 208
281 25 211
282 25 212
283 25 213
284 25 218
285 25 220
286 25 222
287 25 224
288 25 225
289 25 226
290 25 227
291 25 230
292 25 246
293 25 25
294 25 27
295 25 48
296 25 50
297 25 51
298 25 53
299 25 54
300 25 57
301 25 58
302 25 61
303 25 63
304 25 66
305 25 68
306 25 70
307 25 72
308 25 74
309 25 90
310 25 92
311 25 94
312 25 97
313 25 99
314 26 107
315 26 205
316 28 101
317 28 11
318 28 131
319 28 137
320 28 145
321 28 149
322 28 15
323 28 153
324 28 158
325 28 164
326 28 177
327 28 183
328 28 189
329 28 19
330 28 192
331 28 196
332 28 224
333 28 251
334 28 30
335 28 33
336 28 35
337 28 42
338 28 46
339 28 50
340 28 54
341 28 58
342 28 62
343 28 66
344 28 69
345 28 7
346 28 73
347 28 75
348 28 80
349 28 88
350 28 90
351 28 92
352 28 94
353 28 96
354 31 142
355 31 150
356 31 51
357 31 76
358 31 82
359 31 97
360 32 12
361 32 142
362 32 146
363 32 15
364 32 180
365 32 187
366 32 19
367 32 222
368 32 39
369 32 42
370 32 46
371 32 48
372 32 51
373 32 54
374 32 58
375 32 60
376 32 67
377 32 76
378 32 82
379 32 97
380 33 100
381 33 13
382 33 136
383 33 142
384 33 146
385 33 17
386 33 180
387 33 187
388 33 222
389 33 40
390 33 44
391 33 48
392 33 52
393 33 56
394 33 60
395 33 67
396 33 72
397 33 74
398 33 76
399 33 82
400 33 89
401 33 98
402 34 100
403 34 126
404 34 130
405 34 136
406 34 142
407 34 146
408 34 165
409 34 175
410 34 180
411 34 187
412 34 190
413 34 21
414 34 222
415 34 236
416 34 249
417 34 29
418 34 32
419 34 48
420 34 5
421 34 51
422 34 60
423 34 67
424 34 72
425 34 74
426 34 76
427 34 83
428 34 89
429 34 97
430 35 146
431 35 161
432 35 180
433 35 76
434 35 8
435 38 101
436 38 11
437 38 131
438 38 137
439 38 14
440 38 145
441 38 149
442 38 153
443 38 158
444 38 164
445 38 18
446 38 183
447 38 30
448 38 33
449 38 35
450 38 41
451 38 45
452 38 53
453 38 57
454 38 73
455 38 75
456 38 90
457 38 92
458 38 94
459 38 96
460 38 99
461 40 104
462 40 110
463 40 113
464 40 120
465 40 122
466 40 134
467 40 139
468 40 140
469 40 198
470 40 199
471 40 202
472 40 208
473 40 211
474 40 218
475 40 220
476 40 226
477 40 227
478 40 230
479 41 108
480 41 114
481 41 127
482 41 147
483 41 148
484 41 181
485 41 183
486 41 184
487 41 185
488 41 206
489 41 212
490 41 246
491 41 77
492 41 78
493 41 80
494 41 82
495 41 86
496 41 87
497 48 106
498 48 107
499 48 111
500 48 112
501 48 115
502 48 116
503 48 117
504 48 122
505 48 124
506 48 127
507 48 158
508 48 168
509 48 173
510 48 178
511 48 195
512 48 196
513 48 200
514 48 201
515 48 205
516 48 206
517 48 211
518 48 220
519 48 221
520 48 225
521 48 226
522 48 229
523 48 230
524 48 231
525 48 236
526 48 238
527 48 248
528 48 250
529 48 36
530 48 38
531 48 49
532 48 56
533 48 70
534 48 72
535 48 75
536 48 76
537 48 89
538 48 90
539 48 92
540 48 93
541 48 94
542 48 97
543 48 98
544 49 109
545 49 198
546 49 223
547 51 102
548 51 11
549 51 127
550 51 131
551 51 146
552 51 15
553 51 150
554 51 156
555 51 162
556 51 164
557 51 168
558 51 172
559 51 174
560 51 178
561 51 181
562 51 183
563 51 188
564 51 190
565 51 193
566 51 20
567 51 243
568 51 26
569 51 30
570 51 41
571 51 44
572 51 46
573 51 50
574 51 62
575 51 68
576 51 7
577 51 71
578 51 75
579 51 77
580 54 12
581 55 23
582 55 26
583 55 30
584 55 69
585 56 126
586 56 167
587 56 173
588 56 177
589 56 213
590 56 24
591 56 28
592 56 49
593 56 69
594 56 76
595 57 100
596 57 126
597 57 129
598 57 134
599 57 145
600 57 161
601 57 163
602 57 167
603 57 170
604 57 173
605 57 177
606 57 180
607 57 187
608 57 192
609 57 244
610 57 32
611 57 40
612 57 43
613 57 49
614 57 5
615 57 69
616 57 76
617 57 78
618 58 147
619 58 240
620 58 59
621 58 8
622 61 11
623 61 127
624 61 146
625 61 15
626 61 150
627 61 156
628 61 162
629 61 164
630 61 168
631 61 174
632 61 178
633 61 181
634 61 183
635 61 188
636 61 190
637 61 193
638 61 20
639 61 243
640 61 25
641 61 29
642 61 41
643 61 44
644 61 46
645 61 50
646 61 62
647 61 68
648 61 77
649 63 106
650 63 112
651 63 115
652 63 122
653 63 124
654 63 158
655 63 195
656 63 201
657 63 211
658 63 220
659 63 226
660 63 229
661 63 236
662 63 238
663 63 90
664 63 93
665 63 94
666 63 97
667 64 110
668 64 116
669 64 199
670 64 205
671 64 224
672 64 230
673 64 56
674 71 102
675 71 103
676 71 107
677 71 108
678 71 112
679 71 113
680 71 118
681 71 131
682 71 139
683 71 141
684 71 16
685 71 174
686 71 175
687 71 179
688 71 180
689 71 183
690 71 184
691 71 185
692 71 190
693 71 192
694 71 195
695 71 196
696 71 200
697 71 201
698 71 204
699 71 205
700 71 206
701 71 211
702 71 213
703 71 216
704 71 217
705 71 221
706 71 222
707 71 225
708 71 226
709 71 227
710 71 232
711 71 239
712 71 61
713 71 65
714 71 9
715 71 97
716 71 98
717 71 99
718 72 105
719 72 177
720 72 198
721 72 219
722 72 258
723 74 100
724 74 127
725 74 147
726 74 153
727 74 157
728 74 163
729 74 167
730 74 171
731 74 21
732 74 24
733 74 252
734 74 28
735 74 6
736 74 65
737 74 70
738 74 75
739 74 81
740 74 85
741 74 88
742 74 90
743 74 93
744 74 95
745 77 128
746 77 67
747 77 97
748 78 164
749 78 167
750 78 171
751 78 78
752 78 81
753 78 85
754 78 97
755 79 120
756 79 165
757 79 169
758 79 234
759 79 238
760 79 64
761 79 79
762 79 83
763 79 97
764 80 126
765 80 135
766 80 19
767 80 22
768 80 238
769 80 5
770 80 59
771 80 64
772 80 87
773 80 92
774 80 97
775 81 144
776 81 154
777 81 249
778 84 100
779 84 127
780 84 147
781 84 153
782 84 157
783 84 163
784 84 166
785 84 170
786 84 252
787 84 6
788 84 65
789 84 70
790 84 75
791 84 80
792 84 84
793 84 88
794 84 90
795 84 93
796 84 95
797 86 102
798 86 108
799 86 118
800 86 174
801 86 180
802 86 183
803 86 190
804 86 192
805 86 195
806 86 201
807 86 204
808 86 211
809 86 213
810 86 216
811 86 222
812 86 225
813 86 232
814 86 61
815 86 9
816 87 106
817 87 112
818 87 16
819 87 178
820 87 184
821 87 199
822 87 205
823 87 220
824 87 226
825 88 258
826 89 258
827 90 258
828 94 109
829 94 110
830 94 114
831 94 115
832 94 118
833 94 119
834 94 120
835 94 125
836 94 127
837 94 130
838 94 131
839 94 135
840 94 136
841 94 139
842 94 140
843 94 141
844 94 146
845 94 148
846 94 153
847 94 161
848 94 163
849 94 165
850 94 173
851 94 175
852 94 197
853 94 198
854 94 208
855 94 209
856 94 211
857 94 22
858 94 223
859 94 224
860 94 225
861 94 226
862 94 6
863 94 77
864 94 78
865 94 82
866 94 83
867 94 87
868 94 88
869 94 93
870 95 112
871 95 133
872 95 212
873 95 80
874 97 102
875 97 104
876 97 106
877 97 157
878 97 159
879 97 162
880 97 165
881 97 169
882 97 171
883 97 175
884 97 251
885 97 27
886 97 30
887 97 34
888 97 39
889 97 44
890 97 48
891 97 50
892 97 56
893 97 64
894 97 68
895 97 73
896 100 36
897 100 65
898 101 163
899 101 173
900 101 242
901 102 161
902 102 163
903 102 173
904 102 95
905 103 101
906 103 103
907 103 12
908 103 152
909 103 156
910 103 161
911 103 163
912 103 170
913 103 173
914 103 176
915 103 242
916 103 249
917 103 25
918 103 28
919 103 47
920 104 166
921 104 52
922 107 102
923 107 104
924 107 106
925 107 157
926 107 159
927 107 162
928 107 169
929 107 171
930 107 39
931 107 44
932 107 48
933 107 50
934 107 68
935 107 73
936 109 109
937 109 115
938 109 118
939 109 125
940 109 127
941 109 130
942 109 136
943 109 139
944 109 146
945 109 148
946 109 197
947 109 223
948 109 225
949 109 6
950 109 77
951 109 83
952 109 93
953 110 113
954 110 119
955 110 134
956 110 140
957 110 153
958 110 196
959 110 207
960 110 213
961 110 22
962 110 226
963 110 81
964 110 87
965 117 103
966 117 105
967 117 108
968 117 109
969 117 113
970 117 114
971 117 117
972 117 118
973 117 119
974 117 124
975 117 126
976 117 129
977 117 13
978 117 130
979 117 131
980 117 132
981 117 134
982 117 135
983 117 150
984 117 154
985 117 156
986 117 157
987 117 159
988 117 160
989 117 164
990 117 168
991 117 170
992 117 171
993 117 175
994 117 177
995 117 178
996 117 179
997 117 18
998 117 181
999 117 183
1000 117 184
1001 117 186
1002 117 188
1003 117 190
1004 117 191
1005 117 193
1006 117 197
1007 117 202
1008 117 203
1009 117 207
1010 117 208
1011 117 211
1012 117 212
1013 117 213
1014 117 218
1015 117 220
1016 117 239
1017 117 250
1018 117 31
1019 117 33
1020 117 39
1021 117 41
1022 117 45
1023 117 47
1024 117 48
1025 117 49
1026 117 6
1027 117 65
1028 117 66
1029 117 74
1030 117 75
1031 117 87
1032 117 88
1033 117 92
1034 117 93
1035 117 96
1036 117 97
1037 117 98
1038 118 111
1039 118 205
1040 118 90
1041 120 141
1042 120 149
1043 120 153
1044 120 156
1045 120 159
1046 120 163
1047 120 167
1048 120 170
1049 120 174
1050 120 176
1051 120 185
1052 120 187
1053 120 19
1054 120 193
1055 120 21
1056 120 224
1057 120 228
1058 120 232
1059 120 236
1060 120 24
1061 120 26
1062 120 47
1063 120 55
1064 120 63
1065 120 70
1066 120 80
1067 120 84
1068 123 137
1069 123 143
1070 123 181
1071 123 188
1072 123 194
1073 124 137
1074 124 143
1075 124 150
1076 124 154
1077 124 157
1078 124 160
1079 124 164
1080 124 168
1081 124 171
1082 124 181
1083 124 188
1084 124 191
1085 124 229
1086 124 232
1087 124 236
1088 124 45
1089 124 77
1090 124 80
1091 124 84
1092 125 137
1093 125 143
1094 125 150
1095 125 154
1096 125 157
1097 125 160
1098 125 164
1099 125 168
1100 125 171
1101 125 175
1102 125 18
1103 125 182
1104 125 184
1105 125 186
1106 125 189
1107 125 191
1108 125 230
1109 125 234
1110 125 238
1111 125 45
1112 125 78
1113 125 82
1114 126 137
1115 126 144
1116 126 150
1117 126 154
1118 126 157
1119 126 160
1120 126 164
1121 126 168
1122 126 171
1123 126 175
1124 126 18
1125 126 181
1126 126 184
1127 126 186
1128 126 188
1129 126 191
1130 126 20
1131 126 222
1132 126 23
1133 126 238
1134 126 35
1135 126 45
1136 126 68
1137 127 137
1138 127 150
1139 127 160
1140 127 164
1141 127 171
1142 127 225
1143 127 51
1144 130 153
1145 130 163
1146 130 167
1147 130 174
1148 130 176
1149 130 183
1150 130 185
1151 130 187
1152 130 19
1153 130 190
1154 130 21
1155 130 228
1156 130 231
1157 130 235
1158 130 24
1159 130 26
1160 130 79
1161 130 83
1162 132 103
1163 132 105
1164 132 108
1165 132 114
1166 132 117
1167 132 124
1168 132 126
1169 132 129
1170 132 130
1171 132 131
1172 132 132
1173 132 135
1174 132 178
1175 132 179
1176 132 202
1177 132 208
1178 132 211
1179 132 218
1180 132 220
1181 132 250
1182 132 31
1183 132 33
1184 132 49
1185 132 6
1186 132 65
1187 132 74
1188 132 87
1189 132 93
1190 132 96
1191 133 112
1192 133 118
1193 133 13
1194 133 138
1195 133 139
1196 133 141
1197 133 143
1198 133 147
1199 133 148
1200 133 151
1201 133 152
1202 133 161
1203 133 162
1204 133 165
1205 133 166
1206 133 172
1207 133 173
1208 133 206
1209 133 212
1210 133 91
1211 133 97
1212 140 100
1213 140 110
1214 140 111
1215 140 113
1216 140 125
1217 140 126
1218 140 127
1219 140 128
1220 140 13
1221 140 15
1222 140 152
1223 140 153
1224 140 157
1225 140 158
1226 140 161
1227 140 162
1228 140 163
1229 140 168
1230 140 170
1231 140 172
1232 140 174
1233 140 176
1234 140 177
1235 140 178
1236 140 179
1237 140 181
1238 140 182
1239 140 184
1240 140 199
1241 140 200
1242 140 202
1243 140 203
1244 140 204
1245 140 205
1246 140 208
1247 140 218
1248 140 249
1249 140 258
1250 140 26
1251 140 37
1252 140 39
1253 140 41
1254 140 43
1255 140 45
1256 140 47
1257 140 48
1258 140 50
1259 140 51
1260 140 54
1261 140 55
1262 140 59
1263 140 60
1264 140 64
1265 140 65
1266 140 70
1267 140 99
1268 141 114
1269 141 155
1270 141 258
1271 141 57
1272 143 173
1273 143 18
1274 143 180
1275 143 185
1276 143 188
1277 143 191
1278 143 195
1279 143 21
1280 143 23
1281 143 42
1282 143 45
1283 143 8
1284 146 174
1285 146 177
1286 147 144
1287 147 174
1288 147 177
1289 147 43
1290 148 172
1291 148 175
1292 148 177
1293 148 184
1294 148 207
1295 148 216
1296 148 25
1297 148 41
1298 148 43
1299 148 72
1300 149 144
1301 149 17
1302 149 172
1303 149 174
1304 149 177
1305 149 184
1306 149 186
1307 149 189
1308 149 20
1309 149 207
1310 149 216
1311 149 239
1312 149 25
1313 149 41
1314 149 43
1315 149 78
1316 149 9
1317 150 5
1318 153 173
1319 153 176
1320 153 18
1321 153 180
1322 153 185
1323 153 21
1324 153 23
1325 153 42
1326 153 8
1327 155 125
1328 155 127
1329 155 152
1330 155 158
1331 155 161
1332 155 168
1333 155 170
1334 155 182
1335 155 199
1336 155 200
1337 155 203
1338 155 204
1339 155 205
1340 155 37
1341 155 39
1342 155 47
1343 155 51
1344 155 54
1345 155 60
1346 155 70
1347 155 99
1348 156 109
1349 156 115
1350 156 128
1351 156 156
1352 156 162
1353 156 249
1354 156 58
1355 156 64
1356 156 98
1357 159 107
1358 159 122
1359 159 137
1360 159 152
1361 159 167
1362 159 17
1363 159 176
1364 159 182
1365 159 197
1366 159 199
1367 159 2
1368 159 212
1369 159 227
1370 159 242
1371 159 250
1372 159 32
1373 159 47
1374 159 62
1375 159 77
1376 159 92
EOF
